
Gurobi 9.5.0 (linux64) logging started Fri Dec 15 10:51:30 2023

Set parameter LogFile to value "/lustre1/scratch/348/vsc34888/JointResearch/05.Models/06.Benchmarking/K.Investments_per_hour/RTS24_mod1_ByStages_nc300/openStarNet_RTS24_mod1_ByStages_nc300.log"
Set parameter Method to value 2
Set parameter MIPFocus to value 1
Set parameter Presolve to value 2
Set parameter RINS to value 100
Set parameter MIPGap to value 0.01
Set parameter Threads to value 36
Set parameter TimeLimit to value 259200
Set parameter IterationLimit to value 760000000
Gurobi Optimizer version 9.5.0 build v9.5.0rc5 (linux64)
Thread count: 36 physical cores, 36 logical processors, using up to 36 threads
Optimize a model with 106858 rows, 71979 columns and 290880 nonzeros
Model fingerprint: 0x5a796181
Variable types: 71958 continuous, 21 integer (21 binary)
Coefficient statistics:
  Matrix range     [1e-04, 9e+02]
  Objective range  [1e+00, 1e+00]
  Bounds range     [4e-05, 3e+00]
  RHS range        [4e-05, 3e+00]
Presolve removed 63578 rows and 36374 columns
Presolve time: 0.45s
Presolved: 43280 rows, 35605 columns, 156205 nonzeros
Variable types: 35584 continuous, 21 integer (21 binary)
Root relaxation presolved: 43280 rows, 35605 columns, 156205 nonzeros

Root barrier log...

Ordering time: 0.01s

Barrier statistics:
 Dense cols : 21
 AA' NZ     : 2.900e+05
 Factor NZ  : 8.601e+05 (roughly 40 MB of memory)
 Factor Ops : 2.038e+07 (less than 1 second per iteration)
 Threads    : 35

                  Objective                Residual
Iter       Primal          Dual         Primal    Dual     Compl     Time
   0   6.60480810e+05 -5.83153174e+08  5.29e+00 3.99e+02  1.62e+04     1s
   1   1.00791083e+05 -1.50564817e+08  6.96e-01 4.21e-08  2.26e+03     1s
   2   3.93985297e+04 -7.01334012e+07  1.77e-01 1.61e-08  8.15e+02     1s
   3   2.03547266e+04 -7.51559282e+06  9.02e-03 2.36e-10  7.61e+01     1s
   4   1.51134867e+04 -8.10189855e+05  4.50e-04 3.27e-11  8.20e+00     1s
   5   9.21152367e+03 -1.67343131e+05  4.16e-05 8.12e-12  1.75e+00     1s
   6   3.08533381e+03 -3.77656611e+04  5.70e-06 4.02e-12  4.05e-01     1s
   7   1.10552332e+03 -8.78584940e+03  1.25e-06 3.64e-12  9.81e-02     1s
   8   3.35081724e+02 -1.60538874e+03  1.33e-07 3.64e-12  1.93e-02     1s
   9   2.15399828e+02 -7.15583925e+02  5.89e-08 9.09e-13  9.24e-03     1s
  10   1.41227187e+02 -2.51159211e+02  2.77e-08 1.82e-12  3.89e-03     1s
  11   1.00264393e+02 -6.99700977e+01  1.26e-08 1.82e-12  1.69e-03     1s
  12   8.22481858e+01  1.13942896e+00  7.65e-09 1.82e-12  8.05e-04     1s
  13   7.61850807e+01  9.97606458e+00  6.14e-09 9.09e-13  6.57e-04     1s
  14   6.95983081e+01  2.63720745e+01  4.54e-09 9.09e-13  4.29e-04     1s
  15   6.66746684e+01  3.34729654e+01  3.83e-09 1.82e-12  3.29e-04     1s
  16   6.40148078e+01  3.87893838e+01  3.16e-09 3.64e-12  2.50e-04     1s
  17   6.14947472e+01  3.96909740e+01  2.58e-09 1.82e-12  2.16e-04     1s
  18   5.77083287e+01  4.19959784e+01  1.68e-09 1.82e-12  1.56e-04     1s
  19   5.65890942e+01  4.42301213e+01  1.41e-09 1.82e-12  1.23e-04     1s
  20   5.49754002e+01  4.56016813e+01  1.00e-09 1.82e-12  9.30e-05     1s
  21   5.41340693e+01  4.65522668e+01  7.76e-10 1.82e-12  7.52e-05     1s
  22   5.34581857e+01  4.75068835e+01  6.04e-10 1.82e-12  5.90e-05     1s
  23   5.27933601e+01  4.80810714e+01  4.13e-10 1.82e-12  4.67e-05     1s
  24   5.24803737e+01  4.92452397e+01  3.26e-10 9.09e-13  3.21e-05     1s
  25   5.23434360e+01  4.94537900e+01  2.93e-10 1.82e-12  2.87e-05     1s
  26   5.22329358e+01  4.95425966e+01  2.65e-10 1.82e-12  2.67e-05     1s
  27   5.20039933e+01  4.98239285e+01  1.99e-10 1.82e-12  2.16e-05     1s
  28   5.17428447e+01  4.98984711e+01  1.25e-10 9.09e-13  1.83e-05     1s
  29   5.15867876e+01  5.03022344e+01  8.03e-11 1.82e-12  1.27e-05     1s
  30   5.14918860e+01  5.05510420e+01  5.41e-11 9.09e-13  9.33e-06     1s
  31   5.14421899e+01  5.07417251e+01  3.99e-11 1.82e-12  6.95e-06     1s
  32   5.14204001e+01  5.07635855e+01  3.43e-11 3.64e-12  6.52e-06     1s
  33   5.13974696e+01  5.08698727e+01  2.82e-11 1.82e-12  5.23e-06     1s
  34   5.13601627e+01  5.09448989e+01  1.87e-11 1.82e-12  4.12e-06     1s
  35   5.13296784e+01  5.10591503e+01  3.59e-11 9.09e-13  2.68e-06     1s
  36   5.13146382e+01  5.10939965e+01  2.40e-11 9.09e-13  2.19e-06     1s
  37   5.13030207e+01  5.12164026e+01  2.15e-11 1.82e-12  8.59e-07     1s
  38   5.12906867e+01  5.12477892e+01  6.98e-11 1.82e-12  4.26e-07     1s
  39   5.12898360e+01  5.12516458e+01  5.72e-11 1.82e-12  3.79e-07     2s
  40   5.12882300e+01  5.12681620e+01  3.41e-11 9.09e-13  1.99e-07     2s
  41   5.12867854e+01  5.12726273e+01  5.37e-11 9.09e-13  1.40e-07     2s
  42   5.12862360e+01  5.12764501e+01  3.58e-11 9.09e-13  9.71e-08     2s
  43   5.12861166e+01  5.12824667e+01  3.54e-11 1.82e-12  3.62e-08     2s
  44   5.12858081e+01  5.12841373e+01  2.30e-11 3.64e-12  1.66e-08     2s
  45   5.12857329e+01  5.12851464e+01  5.95e-11 3.64e-12  5.82e-09     2s
  46   5.12857105e+01  5.12852241e+01  2.60e-10 1.82e-12  4.83e-09     2s
  47   5.12856539e+01  5.12853216e+01  7.36e-10 9.09e-13  3.30e-09     2s
  48   5.12856467e+01  5.12853995e+01  5.26e-10 1.17e-11  2.45e-09     2s
  49   5.12856403e+01  5.12854389e+01  3.57e-10 1.27e-11  2.00e-09     2s
  50   5.12856390e+01  5.12854994e+01  3.21e-10 2.78e-11  1.38e-09     2s
  51   5.12856351e+01  5.12855702e+01  9.14e-10 1.28e-11  6.44e-10     2s
  52   5.12856330e+01  5.12855818e+01  1.71e-09 1.76e-11  5.08e-10     2s
  53   5.12856329e+01  5.12855912e+01  1.59e-09 5.63e-12  4.14e-10     2s
  54   5.12856322e+01  5.12856317e+01  4.91e-11 3.64e-12  4.29e-12     2s
  55   5.12856322e+01  5.12856322e+01  2.52e-11 3.64e-12  1.46e-14     2s

Barrier solved model in 55 iterations and 1.80 seconds (1.59 work units)
Optimal objective 5.12856322e+01


Root relaxation: objective 5.128563e+01, 6212 iterations, 1.60 seconds (1.34 work units)

    Nodes    |    Current Node    |     Objective Bounds      |     Work
 Expl Unexpl |  Obj  Depth IntInf | Incumbent    BestBd   Gap | It/Node Time

     0     0   51.28563    0   17          -   51.28563      -     -    3s
H    0     0                     102.4294388   51.28563  49.9%     -    4s
     0     0   52.51212    0   16  102.42944   52.51212  48.7%     -    7s
H    0     0                      98.4505336   52.51212  46.7%     -    8s
H    0     0                      91.9480809   52.56521  42.8%     -    9s
     0     0   52.56521    0   15   91.94808   52.56521  42.8%     -    9s
     0     0   52.59487    0   15   91.94808   52.59487  42.8%     -   10s
H    0     0                      88.1627976   52.65298  40.3%     -   11s
     0     0   52.65298    0   15   88.16280   52.65298  40.3%     -   11s
     0     0   52.65786    0   16   88.16280   52.65786  40.3%     -   11s
     0     0   52.65881    0   16   88.16280   52.65881  40.3%     -   11s
     0     0   52.65889    0   16   88.16280   52.65889  40.3%     -   11s
     0     0   52.84636    0   15   88.16280   52.84636  40.1%     -   13s
     0     0   52.89389    0   15   88.16280   52.89389  40.0%     -   14s
H    0     0                      85.1569885   52.90762  37.9%     -   15s
     0     0   52.90762    0   13   85.15699   52.90762  37.9%     -   15s
     0     0   52.90940    0   13   85.15699   52.90940  37.9%     -   16s
     0     0   52.91389    0   13   85.15699   52.91389  37.9%     -   16s
     0     0   52.92639    0   13   85.15699   52.92639  37.8%     -   16s
     0     0   52.92747    0   12   85.15699   52.92747  37.8%     -   17s
     0     0   52.92747    0   12   85.15699   52.92747  37.8%     -   17s
H    0     0                      80.7746206   52.97972  34.4%     -   18s
     0     0   52.97972    0   15   80.77462   52.97972  34.4%     -   18s
     0     0   52.98319    0   14   80.77462   52.98319  34.4%     -   19s
     0     0   52.99651    0   13   80.77462   52.99651  34.4%     -   20s
     0     0   52.99651    0   13   80.77462   52.99651  34.4%     -   20s
H    0     0                      79.2676964   52.99651  33.1%     -   23s
     0     0   52.99651    0   13   79.26770   52.99651  33.1%     -   24s
H    0     0                      71.0528960   52.99651  25.4%     -  138s
     0     2   52.99651    0   13   71.05290   52.99651  25.4%     -  139s
     1     4   53.16581    1   12   71.05290   53.00473  25.4%  2255  141s
     7    16   54.63291    3   15   71.05290   54.43818  23.4%  3836  146s
    31    60   54.70892    5   13   71.05290   54.70892  23.0%  3015  150s
    63    94   55.23052    6   14   71.05290   54.72294  23.0%  2728  160s
H   99   124                      70.9713291   55.24027  22.2%  2696  208s
   135   146   59.64031    8   13   70.97133   55.24027  22.2%  2653  213s
   171   168   58.45178    8   13   70.97133   55.24027  22.2%  2661  216s
   257   188   63.11437    9   12   70.97133   55.24027  22.2%  2367  240s
   357   223   69.11800   10   11   70.97133   55.24027  22.2%  2197  308s
   400   220   68.29197   11   10   70.97133   55.24027  22.2%  2205  602s
   457   237     cutoff   11        70.97133   55.24027  22.2%  2160  622s
   512   262     cutoff   12        70.97133   57.24144  19.3%  2120  628s
   593   283     cutoff    8        70.97133   57.24144  19.3%  2073  634s
   708   322     cutoff    8        70.97133   57.24144  19.3%  1981  639s
   828   326   69.66636   10   11   70.97133   57.24144  19.3%  1879  644s
   938   345     cutoff   11        70.97133   58.80130  17.1%  1837  650s
  1161   383   68.58449   11    9   70.97133   58.80130  17.1%  1796  677s
  1218   397     cutoff   12        70.97133   58.80130  17.1%  1780  682s
  1377   405   69.83676   11    9   70.97133   59.66551  15.9%  1711  688s
  1535   433   63.67017    7   13   70.97133   59.66551  15.9%  1670  694s
  1690   462   66.54965    7   13   70.97133   59.66551  15.9%  1631  698s
  1859   466   65.46518    8   12   70.97133   59.66551  15.9%  1585  705s
  2035   454   68.78670    9   11   70.97133   59.66551  15.9%  1544  711s
  2218   441     cutoff    8        70.97133   62.45454  12.0%  1504  717s
  2407   431   68.57411   10   10   70.97133   62.45454  12.0%  1472  725s
  2641   401     cutoff   11        70.97133   64.24605  9.48%  1423  730s
  2887   362   67.66726   10   10   70.97133   64.24605  9.48%  1379  737s
  3181   332   68.91952   10   10   70.97133   64.24605  9.48%  1330  742s
  3438   301     cutoff   11        70.97133   65.88183  7.17%  1295  761s
  3533   178   67.17283    9    9   70.97133   65.91019  7.13%  1284  767s
  3885    43   70.77048   10   11   70.97133   67.53231  4.85%  1227  771s
  4142     4     cutoff   15        70.97133   69.23850  2.44%  1191  776s

Cutting planes:
  Gomory: 2
  Implied bound: 342
  MIR: 1349
  Relax-and-lift: 217

Explored 4227 nodes (5004754 simplex iterations) in 777.86 seconds (1595.89 work units)
Thread count was 36 (of 36 available processors)

Solution count 9: 70.9713 71.0529 79.2677 ... 102.429

Optimal solution found (tolerance 1.00e-02)
Best objective 7.097132907695e+01, best bound 7.097132907695e+01, gap 0.0000%

Gurobi 9.5.0 (linux64) logging started Fri Dec 15 11:05:06 2023

Set parameter LogFile to value "/lustre1/scratch/348/vsc34888/JointResearch/05.Models/06.Benchmarking/K.Investments_per_hour/RTS24_mod1_ByStages_nc300/openStarNet_RTS24_mod1_ByStages_nc300.log"
Set parameter Method to value 2
Set parameter MIPFocus to value 1
Set parameter Presolve to value 2
Set parameter RINS to value 100
Set parameter MIPGap to value 0.01
Set parameter Threads to value 36
Set parameter TimeLimit to value 259200
Set parameter IterationLimit to value 760000000
No parameters matching 'relax_integrality' found
Gurobi Optimizer version 9.5.0 build v9.5.0rc5 (linux64)
Thread count: 36 physical cores, 36 logical processors, using up to 36 threads
Optimize a model with 106858 rows, 71958 columns and 265575 nonzeros
Model fingerprint: 0xe1030503
Coefficient statistics:
  Matrix range     [1e-04, 9e+02]
  Objective range  [1e+00, 1e+00]
  Bounds range     [4e-05, 3e+00]
  RHS range        [4e-05, 2e+01]
Presolve removed 89702 rows and 41331 columns
Presolve time: 0.14s
Presolved: 17156 rows, 31189 columns, 74549 nonzeros

Ordering time: 0.00s

Barrier statistics:
 AA' NZ     : 4.176e+04
 Factor NZ  : 1.592e+05 (roughly 17 MB of memory)
 Factor Ops : 2.159e+06 (less than 1 second per iteration)
 Threads    : 36

                  Objective                Residual
Iter       Primal          Dual         Primal    Dual     Compl     Time
   0   6.35859239e+06 -3.90905665e+08  4.98e+01 6.95e+02  1.17e+05     0s
   1   3.63402395e+05 -3.06888612e+08  2.60e+00 4.30e+02  1.09e+04     0s
   2   5.02770903e+04 -5.75740000e+07  2.90e-01 1.43e+01  1.37e+03     0s
   3   2.52176076e+04 -8.58873206e+06  3.67e-02 2.00e-11  1.74e+02     0s
   4   1.88546011e+04 -2.44707474e+06  1.95e-03 7.39e-12  4.54e+01     0s
   5   1.54420480e+04 -5.00140601e+05  4.94e-05 2.36e-11  9.43e+00     0s
   6   9.44645035e+03 -1.04891631e+05  2.59e-06 6.34e-12  2.09e+00     0s
   7   3.05166546e+03 -2.73948634e+04  3.98e-07 3.64e-12  5.57e-01     0s
   8   1.14639383e+03 -6.27355140e+03  7.30e-08 3.64e-12  1.36e-01     0s
   9   3.08065490e+02 -1.23448817e+03  3.71e-09 6.59e-07  2.82e-02     0s
  10   2.02346023e+02 -4.03458327e+02  1.41e-09 3.64e-12  1.11e-02     0s
  11   1.33131673e+02 -1.02259732e+02  4.93e-10 1.82e-12  4.31e-03     0s
  12   9.42380435e+01  2.51263609e+01  1.45e-10 1.82e-12  1.26e-03     0s
  13   8.08120663e+01  5.28991571e+01  5.30e-11 3.64e-12  5.11e-04     0s
  14   7.58029659e+01  6.39174512e+01  2.52e-11 1.82e-12  2.17e-04     0s
  15   7.32160091e+01  6.82708237e+01  4.07e-11 1.82e-12  9.04e-05     0s
  16   7.19533737e+01  6.99376571e+01  1.21e-10 1.82e-12  3.69e-05     0s
  17   7.13007406e+01  7.06010668e+01  9.20e-11 3.64e-12  1.28e-05     0s
  18   7.10149760e+01  7.08742966e+01  8.14e-11 3.64e-12  2.57e-06     0s
  19   7.09846803e+01  7.09491884e+01  1.58e-10 3.64e-12  6.49e-07     0s
  20   7.09725220e+01  7.09675117e+01  7.48e-10 3.64e-12  9.16e-08     0s
  21   7.09714165e+01  7.09708386e+01  2.59e-10 1.82e-12  1.06e-08     0s
  22   7.09713301e+01  7.09713270e+01  2.45e-10 3.64e-12  5.75e-11     0s
  23   7.09713291e+01  7.09713291e+01  2.05e-10 1.82e-12  5.75e-14     0s

Barrier solved model in 23 iterations and 0.39 seconds (0.34 work units)
Optimal objective 7.09713291e+01

Crossover log...

    3622 DPushes remaining with DInf 0.0000000e+00                 0s
       0 DPushes remaining with DInf 0.0000000e+00                 0s

     838 PPushes remaining with PInf 0.0000000e+00                 0s
       0 PPushes remaining with PInf 0.0000000e+00                 0s

  Push phase complete: Pinf 0.0000000e+00, Dinf 3.9504450e-13      0s

Iteration    Objective       Primal Inf.    Dual Inf.      Time
     961    7.0971329e+01   0.000000e+00   0.000000e+00      0s

Use crossover to convert LP symmetric solution to basic solution...
Crossover log...

       0 DPushes remaining with DInf 0.0000000e+00                 1s

     467 PPushes remaining with PInf 0.0000000e+00                 1s
       0 PPushes remaining with PInf 0.0000000e+00                 1s

  Push phase complete: Pinf 0.0000000e+00, Dinf 1.7949858e-13      1s

Iteration    Objective       Primal Inf.    Dual Inf.      Time
    1571    7.0971329e+01   0.000000e+00   0.000000e+00      1s

Solved in 1571 iterations and 0.60 seconds (0.46 work units)
Optimal objective  7.097132908e+01

Gurobi 10.0.0 (win64) logging started Sat Dec 16 16:33:53 2023

Set parameter LogFile to value "C:\Users\ealvarezq\Documents\GitHub\Comillas\Models\JointResearch\05. Models\06.Benchmarking\L.Cont_Investments_per_hour\RTS24_mod1_ByStages_nc300/openStarNet_RTS24_mod1_ByStages_nc300.log"
Set parameter Method to value 2
Set parameter MIPFocus to value 1
Set parameter Presolve to value 2
Set parameter RINS to value 100
Set parameter MIPGap to value 0.01
Set parameter Threads to value 9
Set parameter TimeLimit to value 259200
Set parameter IterationLimit to value 760000000
Gurobi Optimizer version 10.0.0 build v10.0.0rc2 (win64)

CPU model: Intel(R) Core(TM) i7-8700 CPU @ 3.20GHz, instruction set [SSE2|AVX|AVX2]
Thread count: 6 physical cores, 12 logical processors, using up to 9 threads

Optimize a model with 106504 rows, 71676 columns and 289726 nonzeros
Model fingerprint: 0xe4116c9c
Variable types: 71655 continuous, 21 integer (21 binary)
Coefficient statistics:
  Matrix range     [1e-03, 8e+02]
  Objective range  [1e+00, 1e+00]
  Bounds range     [3e-05, 3e+00]
  RHS range        [3e-05, 3e+00]
Presolve removed 63373 rows and 36227 columns
Presolve time: 0.40s
Presolved: 43131 rows, 35449 columns, 155621 nonzeros
Variable types: 35428 continuous, 21 integer (21 binary)
Root relaxation presolved: 43131 rows, 35449 columns, 155621 nonzeros

Root barrier log...

Ordering time: 0.01s

Barrier statistics:
 Dense cols : 21
 AA' NZ     : 2.891e+05
 Factor NZ  : 8.039e+05 (roughly 40 MB of memory)
 Factor Ops : 1.792e+07 (less than 1 second per iteration)
 Threads    : 8

                  Objective                Residual
Iter       Primal          Dual         Primal    Dual     Compl     Time
   0   6.70641497e+05 -4.76945167e+08  5.32e+00 4.71e+02  1.34e+04     1s
   1   1.03926239e+05 -1.23863239e+08  7.06e-01 2.75e-08  1.87e+03     1s
   2   3.96539204e+04 -5.67442776e+07  1.73e-01 1.74e-08  6.59e+02     1s
   3   2.03885083e+04 -5.38830780e+06  3.61e-03 2.22e-08  5.43e+01     1s
   4   1.45163273e+04 -3.71454993e+05  5.03e-05 1.40e-09  3.84e+00     1s
   5   6.23743428e+03 -9.48645818e+04  2.40e-06 3.10e-10  1.01e+00     1s
   6   2.20151588e+03 -2.40238434e+04  3.00e-07 6.59e-11  2.61e-01     1s
   7   7.30867445e+02 -7.71180424e+03  5.78e-08 1.80e-11  8.41e-02     1s
   8   2.76965499e+02 -1.74635299e+03  6.77e-09 3.53e-12  2.01e-02     1s
   9   1.38014487e+02 -5.25467242e+02  1.00e-09 1.44e-12  6.61e-03     1s
  10   9.63562146e+01 -1.92071613e+02  3.23e-10 1.52e-12  2.87e-03     1s
  11   7.94971469e+01 -4.58319605e+01  1.66e-10 1.91e-12  1.25e-03     1s
  12   6.78065069e+01  7.23022170e+00  9.00e-11 3.41e-12  6.03e-04     1s
  13   6.10954672e+01  2.72268097e+01  5.27e-11 3.05e-12  3.37e-04     1s
  14   5.64629277e+01  3.46290307e+01  2.84e-11 9.35e-13  2.17e-04     1s
  15   5.42790696e+01  3.83120241e+01  1.76e-11 1.16e-12  1.59e-04     1s
  16   5.31387807e+01  4.06478591e+01  1.20e-11 2.37e-12  1.24e-04     1s
  17   5.26525592e+01  4.48766256e+01  9.64e-12 1.14e-12  7.74e-05     1s
  18   5.21442149e+01  4.66676499e+01  7.15e-12 2.03e-12  5.45e-05     1s
  19   5.17836457e+01  4.71398773e+01  5.33e-12 2.85e-12  4.62e-05     1s
  20   5.15782882e+01  4.81872714e+01  4.32e-12 2.25e-12  3.38e-05     1s
  21   5.14300852e+01  4.83031561e+01  3.56e-12 1.07e-12  3.11e-05     1s
  22   5.11880688e+01  4.88479978e+01  5.34e-12 8.98e-13  2.33e-05     1s
  23   5.10778231e+01  4.94923324e+01  3.13e-12 1.15e-12  1.58e-05     1s
  24   5.09630692e+01  4.99094139e+01  5.77e-12 7.73e-13  1.05e-05     1s
  25   5.08332897e+01  5.03003703e+01  3.11e-11 8.46e-13  5.31e-06     1s
  26   5.08084142e+01  5.04439536e+01  2.19e-11 6.22e-13  3.63e-06     1s
  27   5.07934219e+01  5.05755630e+01  1.54e-11 8.70e-13  2.17e-06     1s
  28   5.07738124e+01  5.06359326e+01  1.09e-11 7.37e-13  1.37e-06     1s
  29   5.07650214e+01  5.06800316e+01  1.32e-11 1.33e-12  8.46e-07     1s
  30   5.07631826e+01  5.07204037e+01  1.07e-11 2.53e-12  4.26e-07     1s
  31   5.07579765e+01  5.07473104e+01  3.00e-11 1.58e-12  1.06e-07     1s
  32   5.07571399e+01  5.07513530e+01  3.83e-11 2.20e-12  5.76e-08     1s
  33   5.07565707e+01  5.07541290e+01  1.31e-10 1.71e-12  2.43e-08     1s
  34   5.07564296e+01  5.07552434e+01  1.53e-10 8.44e-13  1.18e-08     1s
  35   5.07563458e+01  5.07557555e+01  1.32e-10 1.46e-12  5.88e-09     1s
  36   5.07563253e+01  5.07559080e+01  1.88e-10 1.72e-12  4.16e-09     1s
  37   5.07562855e+01  5.07560535e+01  3.72e-10 1.43e-12  2.31e-09     1s
  38   5.07562795e+01  5.07561302e+01  2.41e-10 1.64e-12  1.49e-09     1s
  39   5.07562785e+01  5.07561657e+01  2.40e-10 1.18e-12  1.12e-09     1s
  40   5.07562746e+01  5.07561707e+01  9.25e-11 1.34e-12  1.03e-09     1s
  41   5.07562739e+01  5.07561965e+01  1.26e-10 7.89e-13  7.71e-10     1s
  42   5.07562729e+01  5.07562105e+01  8.46e-11 1.03e-12  6.22e-10     2s
  43   5.07562717e+01  5.07562620e+01  1.37e-10 1.62e-12  9.68e-11     2s
  44   5.07562704e+01  5.07562702e+01  2.42e-09 2.12e-12  1.82e-12     2s

Barrier solved model in 44 iterations and 1.55 seconds (1.43 work units)
Optimal objective 5.07562704e+01


Root relaxation: objective 5.075627e+01, 5191 iterations, 1.41 seconds (1.38 work units)

    Nodes    |    Current Node    |     Objective Bounds      |     Work
 Expl Unexpl |  Obj  Depth IntInf | Incumbent    BestBd   Gap | It/Node Time

     0     0   50.75627    0   18          -   50.75627      -     -    2s
H    0     0                     100.8392548   50.75627  49.7%     -    3s
     0     0   51.86309    0   13  100.83925   51.86309  48.6%     -    7s
H    0     0                      97.0216214   51.86309  46.5%     -    8s
H    0     0                      90.3846085   51.92551  42.6%     -    9s
     0     0   51.92551    0   13   90.38461   51.92551  42.6%     -    9s
     0     0   51.94759    0   12   90.38461   51.94759  42.5%     -    9s
     0     0   51.95623    0   13   90.38461   51.95623  42.5%     -    9s
     0     0   51.95790    0   12   90.38461   51.95790  42.5%     -   10s
     0     0   51.96468    0   12   90.38461   51.96468  42.5%     -   10s
     0     0   51.96818    0   13   90.38461   51.96818  42.5%     -   10s
     0     0   51.97113    0   13   90.38461   51.97113  42.5%     -   10s
     0     0   51.97416    0   13   90.38461   51.97416  42.5%     -   10s
     0     0   51.97600    0   13   90.38461   51.97600  42.5%     -   11s
     0     0   51.97800    0   13   90.38461   51.97800  42.5%     -   11s
     0     0   51.97918    0   13   90.38461   51.97918  42.5%     -   11s
     0     0   51.97918    0   13   90.38461   51.97918  42.5%     -   11s
H    0     0                      86.7991974   52.18794  39.9%     -   13s
     0     0   52.18794    0   12   86.79920   52.18794  39.9%     -   13s
     0     0   52.20872    0   16   86.79920   52.20872  39.9%     -   15s
     0     0   52.22193    0   16   86.79920   52.22193  39.8%     -   15s
     0     0   52.22318    0   15   86.79920   52.22318  39.8%     -   15s
     0     0   52.22456    0   15   86.79920   52.22456  39.8%     -   16s
     0     0   52.22515    0   16   86.79920   52.22515  39.8%     -   16s
     0     0   52.22527    0   16   86.79920   52.22527  39.8%     -   16s
     0     0   52.30784    0   15   86.79920   52.30784  39.7%     -   18s
     0     0   52.31717    0   14   86.79920   52.31717  39.7%     -   19s
     0     0   52.32186    0   11   86.79920   52.32186  39.7%     -   19s
     0     0   52.33120    0   11   86.79920   52.33120  39.7%     -   20s
     0     0   52.33420    0   11   86.79920   52.33420  39.7%     -   20s
     0     0   52.33453    0   11   86.79920   52.33453  39.7%     -   20s
     0     0   52.33614    0   11   86.79920   52.33614  39.7%     -   20s
     0     0   52.33731    0   11   86.79920   52.33731  39.7%     -   20s
     0     0   52.33794    0   11   86.79920   52.33794  39.7%     -   20s
H    0     0                      83.7347172   52.33905  37.5%     -   21s
     0     0   52.33905    0   11   83.73472   52.33905  37.5%     -   21s
     0     0   52.33917    0   11   83.73472   52.33917  37.5%     -   21s
     0     0   52.34440    0   11   83.73472   52.34440  37.5%     -   22s
     0     0   52.34483    0   11   83.73472   52.34483  37.5%     -   23s
     0     0   52.34483    0   11   83.73472   52.34483  37.5%     -   23s
H    0     0                      79.5206909   52.34483  34.2%     -   25s
     0     0   52.34633    0   10   79.52069   52.34633  34.2%     -   26s
H    0     0                      69.7367334   52.34633  24.9%     -   62s
     0     2   52.34633    0   10   69.73673   52.34633  24.9%     -   63s
     1     4   52.45084    1   17   69.73673   52.34752  24.9%  3317   65s
     7    16   53.62912    3   17   69.73673   53.48044  23.3%  3834   72s
    15    25   53.69751    4   16   69.73673   53.62986  23.1%  3119   76s
    24    34   53.72991    5   15   69.73673   53.69754  23.0%  2687   81s
H   30    34                      69.6464135   53.69754  22.9%  2586   81s
    33    43   55.63596    6   14   69.64641   53.69754  22.9%  2851   86s
    42    50   55.74053    6   14   69.64641   53.69754  22.9%  2849   90s
    51    58   57.53762    7   13   69.64641   53.69754  22.9%  2879   98s
H   56    58                      69.6372112   53.69754  22.9%  2846   98s
    61    65   58.74023    7   13   69.63721   53.69754  22.9%  2912  103s
    72    70   59.11252    8   13   69.63721   53.69754  22.9%  2883  115s
    83    81   61.29684    9   12   69.63721   53.69754  22.9%  2739  120s
    96    86   63.91170   10   11   69.63721   53.69754  22.9%  2636  145s
H   98    86                      69.5289890   53.69754  22.8%  2606  145s
   107    98   66.78308   10   11   69.52899   53.69754  22.8%  2585  150s
   121   110   66.53624   11   10   69.52899   53.69754  22.8%  2537  155s
   133   116     cutoff   11        69.52899   53.69754  22.8%  2530  161s
   145   118     cutoff   12        69.52899   54.89223  21.1%  2523  168s
   163   122   61.10063    6   14   69.52899   54.89223  21.1%  2531  179s
   187   122   63.27277    7   14   69.52899   54.89223  21.1%  2373  185s
   209   134   66.41067    8   13   69.52899   54.89223  21.1%  2313  192s
   229   139   69.09390    9   12   69.52899   54.89223  21.1%  2285  200s
   246   141     cutoff   10        69.52899   54.89223  21.1%  2300  210s
   262   148   68.07729   12    9   69.52899   54.89223  21.1%  2346  216s
   285   150   68.26088   14    7   69.52899   54.89223  21.1%  2294  224s
   313   153     cutoff   18        69.52899   55.32446  20.4%  2253  233s
   334   151   60.28261    5    9   69.52899   55.32446  20.4%  2281  243s
   360   160   64.25321    7   13   69.52899   55.32446  20.4%  2256  252s
   379   160     cutoff    9        69.52899   55.32446  20.4%  2263  262s
   401   156     cutoff    8        69.52899   55.32446  20.4%  2267  274s
   427   169   61.87746    6    7   69.52899   55.32446  20.4%  2249  285s
   460   168     cutoff    9        69.52899   55.32446  20.4%  2225  295s
   489   163   65.37969    8   12   69.52899   55.32446  20.4%  2218  306s
   522   167     cutoff    9        69.52899   55.32446  20.4%  2204  316s
   550   179   65.84282    8    9   69.52899   55.32446  20.4%  2200  329s
   578   174     cutoff   11        69.52899   55.32446  20.4%  2204  342s
   621   174     cutoff   10        69.52899   55.32446  20.4%  2165  356s
   659   180     cutoff   10        69.52899   55.32446  20.4%  2154  370s
   694   183   66.74331   10   10   69.52899   55.32446  20.4%  2159  383s
   739   187     cutoff   17        69.52899   60.33734  13.2%  2143  398s
   789   198     cutoff    8        69.52899   60.35259  13.2%  2124  412s
   864   213   61.72197    7   14   69.52899   61.72197  11.2%  2040  425s
   934   217   68.39334   11   10   69.52899   61.94076  10.9%  1979  440s
   998   221     cutoff    9        69.52899   62.46680  10.2%  1947  544s
  1024   216   67.14940   11   10   69.52899   62.46680  10.2%  1948  560s
  1095   213     cutoff   13        69.52899   63.15179  9.17%  1912  852s
  1155   214   65.57822   10   11   69.52899   63.15179  9.17%  1880  875s
  1184   226   65.59907   11   10   69.52899   63.21139  9.09%  1858 1021s
  1308   249   63.83791    8   12   69.52899   63.49894  8.67%  1785 1044s
  1447   277   67.01523   10   11   69.52899   63.84297  8.18%  1725 1067s
  1567   297   66.92066   15    6   69.52899   64.52650  7.19%  1689 1091s
  1732   294     cutoff   16        69.52899   64.79187  6.81%  1621 1115s
  1860   304     cutoff    8        69.52899   64.97600  6.55%  1598 1139s
  2004   279   69.51441   15    6   69.52899   65.26435  6.13%  1564 1165s
  2184   278     cutoff   12        69.52899   65.29933  6.08%  1512 1237s
  2353   245     cutoff   16        69.52899   66.12383  4.90%  1479 1267s
  2553   191   68.66655   12    9   69.52899   66.51557  4.33%  1437 1295s
  2802   126     cutoff   13        69.52899   66.92494  3.75%  1381 1323s
  3077     5     cutoff   21        69.52899   67.64940  2.70%  1322 1340s

Cutting planes:
  Gomory: 1
  Implied bound: 223
  MIR: 1586
  Relax-and-lift: 167

Explored 3275 nodes (4210392 simplex iterations) in 1341.19 seconds (2871.22 work units)
Thread count was 9 (of 12 available processors)

Solution count 10: 69.529 69.6372 69.6464 ... 100.839

Optimal solution found (tolerance 1.00e-02)
Best objective 6.952898902328e+01, best bound 6.952898902328e+01, gap 0.0000%

Gurobi 10.0.0 (win64) logging started Sat Dec 16 16:56:19 2023

Set parameter LogFile to value "C:\Users\ealvarezq\Documents\GitHub\Comillas\Models\JointResearch\05. Models\06.Benchmarking\L.Cont_Investments_per_hour\RTS24_mod1_ByStages_nc300/openStarNet_RTS24_mod1_ByStages_nc300.log"
Set parameter Method to value 2
Set parameter MIPFocus to value 1
Set parameter Presolve to value 2
Set parameter RINS to value 100
Set parameter MIPGap to value 0.01
Set parameter Threads to value 9
Set parameter TimeLimit to value 259200
Set parameter IterationLimit to value 760000000
No parameters matching 'relax_integrality' found
Gurobi Optimizer version 10.0.0 build v10.0.0rc2 (win64)

CPU model: Intel(R) Core(TM) i7-8700 CPU @ 3.20GHz, instruction set [SSE2|AVX|AVX2]
Thread count: 6 physical cores, 12 logical processors, using up to 9 threads

Optimize a model with 106504 rows, 71655 columns and 264505 nonzeros
Model fingerprint: 0xb83b2689
Coefficient statistics:
  Matrix range     [1e-03, 8e+02]
  Objective range  [1e+00, 1e+00]
  Bounds range     [3e-05, 3e+00]
  RHS range        [3e-05, 2e+01]
Presolve removed 89707 rows and 41443 columns
Presolve time: 0.13s
Presolved: 16797 rows, 30799 columns, 75834 nonzeros

Ordering time: 0.00s

Barrier statistics:
 AA' NZ     : 4.409e+04
 Factor NZ  : 1.648e+05 (roughly 17 MB of memory)
 Factor Ops : 2.405e+06 (less than 1 second per iteration)
 Threads    : 9

                  Objective                Residual
Iter       Primal          Dual         Primal    Dual     Compl     Time
   0   6.82411989e+06 -3.86570512e+08  5.21e+01 5.19e+02  1.18e+05     0s
   1   3.83554874e+05 -2.81712081e+08  2.67e+00 1.46e-11  1.03e+04     0s
   2   5.13821620e+04 -5.24869134e+07  2.79e-01 1.64e-11  1.27e+03     0s
   3   2.69665094e+04 -7.17757960e+06  3.58e-02 1.09e-11  1.49e+02     0s
   4   1.98344912e+04 -2.15778588e+06  1.56e-03 1.09e-11  4.06e+01     0s
   5   1.44620748e+04 -2.61117952e+05  6.57e-12 7.28e-12  5.11e+00     0s
   6   7.07943592e+03 -5.58196812e+04  7.35e-12 7.16e-12  1.17e+00     0s
   7   2.37093453e+03 -1.37056297e+04  4.36e-12 3.83e-12  2.98e-01     0s
   8   8.62518335e+02 -4.59308126e+03  2.75e-12 2.83e-12  1.01e-01     0s
   9   2.85405347e+02 -9.61634377e+02  1.63e-12 1.97e-12  2.31e-02     0s
  10   1.47422518e+02 -1.79595652e+02  2.44e-12 2.62e-12  6.07e-03     0s
  11   1.12225358e+02  2.83402788e+00  9.09e-12 5.16e-12  2.03e-03     0s
  12   9.01703050e+01  4.36698028e+01  1.20e-11 2.90e-12  8.63e-04     0s
  13   8.03665488e+01  5.96698098e+01  2.86e-11 2.73e-12  3.84e-04     0s
  14   7.46353575e+01  6.48238767e+01  3.49e-11 1.75e-12  1.82e-04     0s
  15   7.19481269e+01  6.72571894e+01  5.13e-11 1.47e-12  8.70e-05     0s
  16   7.02151115e+01  6.90671971e+01  8.25e-11 1.72e-12  2.13e-05     0s
  17   6.98074377e+01  6.93505610e+01  9.16e-10 4.27e-12  8.48e-06     0s
  18   6.96117438e+01  6.95083505e+01  1.85e-10 6.60e-12  1.92e-06     0s
  19   6.95341792e+01  6.95256934e+01  5.15e-09 2.70e-12  1.57e-07     0s
  20   6.95291855e+01  6.95287174e+01  1.62e-09 1.79e-12  8.68e-09     0s
  21   6.95289921e+01  6.95289774e+01  2.65e-09 2.66e-12  2.73e-10     0s
  22   6.95289890e+01  6.95289890e+01  1.56e-09 4.30e-12  1.01e-14     0s

Barrier solved model in 22 iterations and 0.35 seconds (0.35 work units)
Optimal objective 6.95289890e+01

Crossover log...

    3346 DPushes remaining with DInf 0.0000000e+00                 0s
       0 DPushes remaining with DInf 0.0000000e+00                 0s

    1071 PPushes remaining with PInf 0.0000000e+00                 0s
       0 PPushes remaining with PInf 0.0000000e+00                 0s

  Push phase complete: Pinf 0.0000000e+00, Dinf 2.1660826e-13      0s

Iteration    Objective       Primal Inf.    Dual Inf.      Time
    1165    6.9528989e+01   0.000000e+00   0.000000e+00      0s

Use crossover to convert LP symmetric solution to basic solution...
Crossover log...

       0 DPushes remaining with DInf 0.0000000e+00                 0s

     545 PPushes remaining with PInf 0.0000000e+00                 0s
       0 PPushes remaining with PInf 0.0000000e+00                 0s

  Push phase complete: Pinf 0.0000000e+00, Dinf 1.7612342e-13      0s

Iteration    Objective       Primal Inf.    Dual Inf.      Time
    1774    6.9528989e+01   0.000000e+00   0.000000e+00      1s

Solved in 1774 iterations and 0.55 seconds (0.46 work units)
Optimal objective  6.952898902e+01
